(set-logic QF_S)
(set-option :strings-exp true)
(set-option :produce-models true)
(declare-fun sigmaStar_0 () String)
(declare-fun literal_6 () String)
(assert (= literal_6 "\x3c\x70\x3e\x3c\x73\x6d\x61\x6c\x6c\x3e\x7b\x7d\x20\x61\x73\x73\x65\x73\x73\x6d\x65\x6e\x74\x62\x79\x3b\x26\x6e\x62\x73\x70\x3b\x26\x6e\x62\x73\x70\x3b\x5c\x6e"))
(assert (str.in.re literal_6 (re.++ (re.* re.allchar) (re.++ (str.to.re "\x5c\x3c\x53\x43\x52\x49\x50\x54") (re.* re.allchar)))))
(check-sat)
(get-model)
